NAME : A-n48-k7
COMMENT : (Augerat et al, Min no of trucks: 7, Best value: 1073)
TYPE : CVRP
DIMENSION : 48
EDGE_WEIGHT_TYPE : EUC_2D 
CAPACITY : 100
NODE_COORD_SECTION 
 1 47 5
 2 1 19
 3 97 35
 4 23 79
 5 77 87
 6 3 9
 7 5 27
 8 41 53
 9 51 87
 10 67 73
 11 89 45
 12 71 99
 13 11 1
 14 85 85
 15 57 11
 16 57 85
 17 71 33
 18 61 13
 19 39 15
 20 13 59
 21 43 99
 22 87 73
 23 11 37
 24 21 11
 25 77 81
 26 3 63
 27 47 95
 28 53 75
 29 73 55
 30 81 71
 31 89 75
 32 11 9
 33 27 37
 34 95 59
 35 63 63
 36 37 21
 37 33 47
 38 23 63
 39 13 55
 40 47 93
 41 45 43
 42 83 7
 43 69 91
 44 13 11
 45 37 15
 46 53 59
 47 97 83
 48 75 31
DEMAND_SECTION 
1 0 
2 20 
3 14 
4 5 
5 11 
6 22 
7 25 
8 2 
9 18 
10 10 
11 26 
12 14 
13 22 
14 9 
15 11 
16 18 
17 24 
18 15 
19 23 
20 16 
21 14 
22 8 
23 5 
24 12 
25 8 
26 16 
27 12 
28 15 
29 9 
30 2 
31 10 
32 2 
33 3 
34 20 
35 3 
36 13 
37 25 
38 23 
39 8 
40 16 
41 9 
42 14 
43 4 
44 13 
45 7 
46 16 
47 18 
48 16 
DEPOT_SECTION 
 1  
 -1  
EOF 
